\ENCODING=ISO-8859-1
\Problem name: IloCplex

Minimize
 obj1: 0 x_cu(0,7) + 0 x_cu(0,6) + 0 x_cu(0,5) + 0 x_cu(0,4) + 0 x_cu(0,3)
       + 0 x_cu(0,2) + 0 x_cu(0,1) + 0 x_cu(0,0) + 0 x_cu(1,7) + 0 x_cu(1,6)
       + 0 x_cu(1,5) + 0 x_cu(1,4) + 0 x_cu(1,3) + 0 x_cu(1,2) + 0 x_cu(1,1)
       + 0 x_cu(1,0) + 0 x_cu(2,7) + 0 x_cu(2,6) + 0 x_cu(2,5) + 0 x_cu(2,4)
       + 0 x_cu(2,3) + 0 x_cu(2,2) + 0 x_cu(2,1) + 0 x_cu(2,0) + 0 x_cu(3,7)
       + 0 x_cu(3,6) + 0 x_cu(3,5) + 0 x_cu(3,4) + 0 x_cu(3,3) + 0 x_cu(3,2)
       + 0 x_cu(3,1) + 0 x_cu(3,0) + 0 x_du(0,7) + 0 x_du(0,6) + 0 x_du(0,5)
       + 0 x_du(0,4) + 0 x_du(0,3) + 0 x_du(0,2) + 0 x_du(0,1) + 0 x_du(0,0)
       + 0 x_du(1,7) + 0 x_du(1,6) + 0 x_du(1,5) + 0 x_du(1,4) + 0 x_du(1,3)
       + 0 x_du(1,2) + 0 x_du(1,1) + 0 x_du(1,0) + 0 x_du(2,7) + 0 x_du(2,6)
       + 0 x_du(2,5) + 0 x_du(2,4) + 0 x_du(2,3) + 0 x_du(2,2) + 0 x_du(2,1)
       + 0 x_du(2,0) + 0 x_du(3,7) + 0 x_du(3,6) + 0 x_du(3,5) + 0 x_du(3,4)
       + 0 x_du(3,3) + 0 x_du(3,2) + 0 x_du(3,1) + 0 x_du(3,0) + 1010 z(0,0,7)
       + 1100 z(0,0,6) + 1100 z(0,0,5) + 1100 z(0,0,4) + 2000 z(0,0,3)
       + 2000 z(0,0,2) + 2000 z(0,0,1) + 2000 z(0,0,0) + 1010 z(0,1,7)
       + 1100 z(0,1,6) + 1100 z(0,1,5) + 1100 z(0,1,4) + 2000 z(0,1,3)
       + 2000 z(0,1,2) + 2000 z(0,1,1) + 2000 z(0,1,0) + 1010 z(0,2,7)
       + 1100 z(0,2,6) + 1100 z(0,2,5) + 1100 z(0,2,4) + 2000 z(0,2,3)
       + 2000 z(0,2,2) + 2000 z(0,2,1) + 2000 z(0,2,0) + 1010 z(0,3,7)
       + 1100 z(0,3,6) + 1100 z(0,3,5) + 1100 z(0,3,4) + 2000 z(0,3,3)
       + 2000 z(0,3,2) + 2000 z(0,3,1) + 2000 z(0,3,0) + 20 z(0,4,7)
       + 110 z(0,4,6) + 110 z(0,4,5) + 110 z(0,4,4) + 1010 z(0,4,3)
       + 1010 z(0,4,2) + 1010 z(0,4,1) + 1010 z(0,4,0) + 20 z(0,5,7)
       + 110 z(0,5,6) + 110 z(0,5,5) + 110 z(0,5,4) + 1010 z(0,5,3)
       + 1010 z(0,5,2) + 1010 z(0,5,1) + 1010 z(0,5,0) + 20 z(0,6,7)
       + 110 z(0,6,6) + 110 z(0,6,5) + 110 z(0,6,4) + 1010 z(0,6,3)
       + 1010 z(0,6,2) + 1010 z(0,6,1) + 1010 z(0,6,0) + 11 z(0,7,7)
       + 101 z(0,7,6) + 101 z(0,7,5) + 101 z(0,7,4) + 1001 z(0,7,3)
       + 1001 z(0,7,2) + 1001 z(0,7,1) + 1001 z(0,7,0) + 1010 z(1,0,7)
       + 1100 z(1,0,6) + 1100 z(1,0,5) + 1100 z(1,0,4) + 2000 z(1,0,3)
       + 2000 z(1,0,2) + 2000 z(1,0,1) + 2000 z(1,0,0) + 1010 z(1,1,7)
       + 1100 z(1,1,6) + 1100 z(1,1,5) + 1100 z(1,1,4) + 2000 z(1,1,3)
       + 2000 z(1,1,2) + 2000 z(1,1,1) + 2000 z(1,1,0) + 1010 z(1,2,7)
       + 1100 z(1,2,6) + 1100 z(1,2,5) + 1100 z(1,2,4) + 2000 z(1,2,3)
       + 2000 z(1,2,2) + 2000 z(1,2,1) + 2000 z(1,2,0) + 1010 z(1,3,7)
       + 1100 z(1,3,6) + 1100 z(1,3,5) + 1100 z(1,3,4) + 2000 z(1,3,3)
       + 2000 z(1,3,2) + 2000 z(1,3,1) + 2000 z(1,3,0) + 20 z(1,4,7)
       + 110 z(1,4,6) + 110 z(1,4,5) + 110 z(1,4,4) + 1010 z(1,4,3)
       + 1010 z(1,4,2) + 1010 z(1,4,1) + 1010 z(1,4,0) + 20 z(1,5,7)
       + 110 z(1,5,6) + 110 z(1,5,5) + 110 z(1,5,4) + 1010 z(1,5,3)
       + 1010 z(1,5,2) + 1010 z(1,5,1) + 1010 z(1,5,0) + 20 z(1,6,7)
       + 110 z(1,6,6) + 110 z(1,6,5) + 110 z(1,6,4) + 1010 z(1,6,3)
       + 1010 z(1,6,2) + 1010 z(1,6,1) + 1010 z(1,6,0) + 11 z(1,7,7)
       + 101 z(1,7,6) + 101 z(1,7,5) + 101 z(1,7,4) + 1001 z(1,7,3)
       + 1001 z(1,7,2) + 1001 z(1,7,1) + 1001 z(1,7,0) + 1010 z(2,0,7)
       + 1100 z(2,0,6) + 1100 z(2,0,5) + 1100 z(2,0,4) + 2000 z(2,0,3)
       + 2000 z(2,0,2) + 2000 z(2,0,1) + 2000 z(2,0,0) + 1010 z(2,1,7)
       + 1100 z(2,1,6) + 1100 z(2,1,5) + 1100 z(2,1,4) + 2000 z(2,1,3)
       + 2000 z(2,1,2) + 2000 z(2,1,1) + 2000 z(2,1,0) + 1010 z(2,2,7)
       + 1100 z(2,2,6) + 1100 z(2,2,5) + 1100 z(2,2,4) + 2000 z(2,2,3)
       + 2000 z(2,2,2) + 2000 z(2,2,1) + 2000 z(2,2,0) + 1010 z(2,3,7)
       + 1100 z(2,3,6) + 1100 z(2,3,5) + 1100 z(2,3,4) + 2000 z(2,3,3)
       + 2000 z(2,3,2) + 2000 z(2,3,1) + 2000 z(2,3,0) + 20 z(2,4,7)
       + 110 z(2,4,6) + 110 z(2,4,5) + 110 z(2,4,4) + 1010 z(2,4,3)
       + 1010 z(2,4,2) + 1010 z(2,4,1) + 1010 z(2,4,0) + 20 z(2,5,7)
       + 110 z(2,5,6) + 110 z(2,5,5) + 110 z(2,5,4) + 1010 z(2,5,3)
       + 1010 z(2,5,2) + 1010 z(2,5,1) + 1010 z(2,5,0) + 20 z(2,6,7)
       + 110 z(2,6,6) + 110 z(2,6,5) + 110 z(2,6,4) + 1010 z(2,6,3)
       + 1010 z(2,6,2) + 1010 z(2,6,1) + 1010 z(2,6,0) + 11 z(2,7,7)
       + 101 z(2,7,6) + 101 z(2,7,5) + 101 z(2,7,4) + 1001 z(2,7,3)
       + 1001 z(2,7,2) + 1001 z(2,7,1) + 1001 z(2,7,0) + 1010 z(3,0,7)
       + 1100 z(3,0,6) + 1100 z(3,0,5) + 1100 z(3,0,4) + 2000 z(3,0,3)
       + 2000 z(3,0,2) + 2000 z(3,0,1) + 2000 z(3,0,0) + 1010 z(3,1,7)
       + 1100 z(3,1,6) + 1100 z(3,1,5) + 1100 z(3,1,4) + 2000 z(3,1,3)
       + 2000 z(3,1,2) + 2000 z(3,1,1) + 2000 z(3,1,0) + 1010 z(3,2,7)
       + 1100 z(3,2,6) + 1100 z(3,2,5) + 1100 z(3,2,4) + 2000 z(3,2,3)
       + 2000 z(3,2,2) + 2000 z(3,2,1) + 2000 z(3,2,0) + 1010 z(3,3,7)
       + 1100 z(3,3,6) + 1100 z(3,3,5) + 1100 z(3,3,4) + 2000 z(3,3,3)
       + 2000 z(3,3,2) + 2000 z(3,3,1) + 2000 z(3,3,0) + 20 z(3,4,7)
       + 110 z(3,4,6) + 110 z(3,4,5) + 110 z(3,4,4) + 1010 z(3,4,3)
       + 1010 z(3,4,2) + 1010 z(3,4,1) + 1010 z(3,4,0) + 20 z(3,5,7)
       + 110 z(3,5,6) + 110 z(3,5,5) + 110 z(3,5,4) + 1010 z(3,5,3)
       + 1010 z(3,5,2) + 1010 z(3,5,1) + 1010 z(3,5,0) + 20 z(3,6,7)
       + 110 z(3,6,6) + 110 z(3,6,5) + 110 z(3,6,4) + 1010 z(3,6,3)
       + 1010 z(3,6,2) + 1010 z(3,6,1) + 1010 z(3,6,0) + 11 z(3,7,7)
       + 101 z(3,7,6) + 101 z(3,7,5) + 101 z(3,7,4) + 1001 z(3,7,3)
       + 1001 z(3,7,2) + 1001 z(3,7,1) + 1001 z(3,7,0)
Subject To
 Placement(0)#0:          z(0,0,6) + z(0,0,5) + z(0,0,4) + 32580 z(0,0,3)
                          + 1556195200 z(0,0,2) + 32765 z(0,0,1) + z(0,0,0)
                          + z(0,1,6) + z(0,1,5) + z(0,1,4) + z(0,1,1)
                          + z(0,2,6) + z(0,2,5) + z(0,2,4) + z(0,2,2)
                          + z(0,3,6) + z(0,3,5) + z(0,3,4) + z(0,3,3)
                          + z(0,4,7) + z(0,4,6) + z(0,4,5) + z(0,4,4)
                          + z(0,5,7) + z(0,5,6) + z(0,5,5) + z(0,5,4)
                          + z(0,6,7) + z(0,6,6) + z(0,6,5) + z(0,6,4)
                          + z(0,7,7) + z(0,7,6) + z(0,7,5) + z(0,7,4)  = 1
 Placement(1)#1:          z(1,0,6) + z(1,0,5) + z(1,0,4) + 32580 z(1,0,3)
                          + 1556195200 z(1,0,2) + 32765 z(1,0,1) + z(1,0,0)
                          + z(1,1,6) + z(1,1,5) + z(1,1,4) + z(1,1,1)
                          + z(1,2,6) + z(1,2,5) + z(1,2,4) + z(1,2,2)
                          + z(1,3,6) + z(1,3,5) + z(1,3,4) + z(1,3,3)
                          + z(1,4,7) + z(1,4,6) + z(1,4,5) + z(1,4,4)
                          + z(1,5,7) + z(1,5,6) + z(1,5,5) + z(1,5,4)
                          + z(1,6,7) + z(1,6,6) + z(1,6,5) + z(1,6,4)
                          + z(1,7,7) + z(1,7,6) + z(1,7,5) + z(1,7,4)  = 1
 Placement(2)#2:          z(2,0,6) + z(2,0,5) + z(2,0,4) + 32580 z(2,0,3)
                          + 1556195200 z(2,0,2) + 32765 z(2,0,1) + z(2,0,0)
                          + z(2,1,6) + z(2,1,5) + z(2,1,4) + z(2,1,1)
                          + z(2,2,6) + z(2,2,5) + z(2,2,4) + z(2,2,2)
                          + z(2,3,6) + z(2,3,5) + z(2,3,4) + z(2,3,3)
                          + z(2,4,7) + z(2,4,6) + z(2,4,5) + z(2,4,4)
                          + z(2,5,7) + z(2,5,6) + z(2,5,5) + z(2,5,4)
                          + z(2,6,7) + z(2,6,6) + z(2,6,5) + z(2,6,4)
                          + z(2,7,7) + z(2,7,6) + z(2,7,5) + z(2,7,4)  = 1
 Placement(3)#3:          z(3,0,6) + z(3,0,5) + z(3,0,4) + 32580 z(3,0,3)
                          + 1556195200 z(3,0,2) + 32765 z(3,0,1) + z(3,0,0)
                          + z(3,1,6) + z(3,1,5) + z(3,1,4) + z(3,1,1)
                          + z(3,2,6) + z(3,2,5) + z(3,2,4) + z(3,2,2)
                          + z(3,3,6) + z(3,3,5) + z(3,3,4) + z(3,3,3)
                          + z(3,4,7) + z(3,4,6) + z(3,4,5) + z(3,4,4)
                          + z(3,5,7) + z(3,5,6) + z(3,5,5) + z(3,5,4)
                          + z(3,6,7) + z(3,6,6) + z(3,6,5) + z(3,6,4)
                          + z(3,7,7) + z(3,7,6) + z(3,7,5) + z(3,7,4)  = 1
 Capacity_of_link(23)#4:  500000000 z(0,7,6) + 3000000000 z(1,7,6)
                          + 5500000000 z(2,7,6) + 8000000000 z(3,7,6)
                          - RgCapacity_of_link(23)#4  = 0
 Capacity_of_link(21)#5:  500000000 z(0,7,5) + 3000000000 z(1,7,5)
                          + 5500000000 z(2,7,5) + 8000000000 z(3,7,5)
                          - RgCapacity_of_link(21)#5  = 0
 Capacity_of_link(19)#6:  500000000 z(0,7,4) + 3000000000 z(1,7,4)
                          + 5500000000 z(2,7,4) + 8000000000 z(3,7,4)
                          - RgCapacity_of_link(19)#6  = 0
 Capacity_of_link(22)#7:  500000000 z(0,6,7) + 3000000000 z(1,6,7)
                          + 5500000000 z(2,6,7) + 8000000000 z(3,6,7)
                          - RgCapacity_of_link(22)#7  = 0
 Capacity_of_link(17)#8:  500000000 z(0,6,5) + 3000000000 z(1,6,5)
                          + 5500000000 z(2,6,5) + 8000000000 z(3,6,5)
                          - RgCapacity_of_link(17)#8  = 0
 Capacity_of_link(15)#9:  500000000 z(0,6,4) + 3000000000 z(1,6,4)
                          + 5500000000 z(2,6,4) + 8000000000 z(3,6,4)
                          - RgCapacity_of_link(15)#9  = 0
 Capacity_of_link(20)#10: 500000000 z(0,5,7) + 3000000000 z(1,5,7)
                          + 5500000000 z(2,5,7) + 8000000000 z(3,5,7)
                          - RgCapacity_of_link(20)#10  = 0
 Capacity_of_link(16)#11: 500000000 z(0,5,6) + 3000000000 z(1,5,6)
                          + 5500000000 z(2,5,6) + 8000000000 z(3,5,6)
                          - RgCapacity_of_link(16)#11  = 0
 Capacity_of_link(13)#12: 500000000 z(0,5,4) + 3000000000 z(1,5,4)
                          + 5500000000 z(2,5,4) + 8000000000 z(3,5,4)
                          - RgCapacity_of_link(13)#12  = 0
 Capacity_of_link(18)#13: 500000000 z(0,4,7) + 3000000000 z(1,4,7)
                          + 5500000000 z(2,4,7) + 8000000000 z(3,4,7)
                          - RgCapacity_of_link(18)#13  = 0
 Capacity_of_link(14)#14: 500000000 z(0,4,6) + 3000000000 z(1,4,6)
                          + 5500000000 z(2,4,6) + 8000000000 z(3,4,6)
                          - RgCapacity_of_link(14)#14  = 0
 Capacity_of_link(12)#15: 500000000 z(0,4,5) + 3000000000 z(1,4,5)
                          + 5500000000 z(2,4,5) + 8000000000 z(3,4,5)
                          - RgCapacity_of_link(12)#15  = 0
 Capacity_of_link(11)#16: 500000000 z(0,3,6) + 3000000000 z(1,3,6)
                          + 5500000000 z(2,3,6) + 8000000000 z(3,3,6)
                          - RgCapacity_of_link(11)#16  = 0
 Capacity_of_link(10)#17: 500000000 z(0,3,5) + 3000000000 z(1,3,5)
                          + 5500000000 z(2,3,5) + 8000000000 z(3,3,5)
                          - RgCapacity_of_link(10)#17  = 0
 Capacity_of_link(9)#18:  500000000 z(0,3,4) + 3000000000 z(1,3,4)
                          + 5500000000 z(2,3,4) + 8000000000 z(3,3,4)
                          - RgCapacity_of_link(9)#18  = 0
 Capacity_of_link(8)#19:  500000000 z(0,2,6) + 3000000000 z(1,2,6)
                          + 5500000000 z(2,2,6) + 8000000000 z(3,2,6)
                          - RgCapacity_of_link(8)#19  = 0
 Capacity_of_link(7)#20:  500000000 z(0,2,5) + 3000000000 z(1,2,5)
                          + 5500000000 z(2,2,5) + 8000000000 z(3,2,5)
                          - RgCapacity_of_link(7)#20  = 0
 Capacity_of_link(6)#21:  500000000 z(0,2,4) + 3000000000 z(1,2,4)
                          + 5500000000 z(2,2,4) + 8000000000 z(3,2,4)
                          - RgCapacity_of_link(6)#21  = 0
 Capacity_of_link(5)#22:  500000000 z(0,1,6) + 3000000000 z(1,1,6)
                          + 5500000000 z(2,1,6) + 8000000000 z(3,1,6)
                          - RgCapacity_of_link(5)#22  = 0
 Capacity_of_link(4)#23:  500000000 z(0,1,5) + 3000000000 z(1,1,5)
                          + 5500000000 z(2,1,5) + 8000000000 z(3,1,5)
                          - RgCapacity_of_link(4)#23  = 0
 Capacity_of_link(3)#24:  500000000 z(0,1,4) + 3000000000 z(1,1,4)
                          + 5500000000 z(2,1,4) + 8000000000 z(3,1,4)
                          - RgCapacity_of_link(3)#24  = 0
 Capacity_of_link(2)#25:  500000000 z(0,0,6) + 3000000000 z(1,0,6)
                          + 5500000000 z(2,0,6) + 8000000000 z(3,0,6)
                          - RgCapacity_of_link(2)#25  = 0
 Capacity_of_link(1)#26:  500000000 z(0,0,5) + 3000000000 z(1,0,5)
                          + 5500000000 z(2,0,5) + 8000000000 z(3,0,5)
                          - RgCapacity_of_link(1)#26  = 0
 Capacity_of_link(0)#27:  500000000 z(0,0,4) + 3000000000 z(1,0,4)
                          + 5500000000 z(2,0,4) + 8000000000 z(3,0,4)  = 0
Bounds
 0 <= x_cu(0,7) <= 1
 0 <= x_cu(0,6) <= 1
 0 <= x_cu(0,5) <= 1
 0 <= x_cu(0,4) <= 1
 0 <= x_cu(0,3) <= 1
 0 <= x_cu(0,2) <= 1
 0 <= x_cu(0,1) <= 1
 0 <= x_cu(0,0) <= 1
 0 <= x_cu(1,7) <= 1
 0 <= x_cu(1,6) <= 1
 0 <= x_cu(1,5) <= 1
 0 <= x_cu(1,4) <= 1
 0 <= x_cu(1,3) <= 1
 0 <= x_cu(1,2) <= 1
 0 <= x_cu(1,1) <= 1
 0 <= x_cu(1,0) <= 1
 0 <= x_cu(2,7) <= 1
 0 <= x_cu(2,6) <= 1
 0 <= x_cu(2,5) <= 1
 0 <= x_cu(2,4) <= 1
 0 <= x_cu(2,3) <= 1
 0 <= x_cu(2,2) <= 1
 0 <= x_cu(2,1) <= 1
 0 <= x_cu(2,0) <= 1
 0 <= x_cu(3,7) <= 1
 0 <= x_cu(3,6) <= 1
 0 <= x_cu(3,5) <= 1
 0 <= x_cu(3,4) <= 1
 0 <= x_cu(3,3) <= 1
 0 <= x_cu(3,2) <= 1
 0 <= x_cu(3,1) <= 1
 0 <= x_cu(3,0) <= 1
 0 <= x_du(0,7) <= 1
 0 <= x_du(0,6) <= 1
 0 <= x_du(0,5) <= 1
 0 <= x_du(0,4) <= 1
 0 <= x_du(0,3) <= 1
 0 <= x_du(0,2) <= 1
 0 <= x_du(0,1) <= 1
 0 <= x_du(0,0) <= 1
 0 <= x_du(1,7) <= 1
 0 <= x_du(1,6) <= 1
 0 <= x_du(1,5) <= 1
 0 <= x_du(1,4) <= 1
 0 <= x_du(1,3) <= 1
 0 <= x_du(1,2) <= 1
 0 <= x_du(1,1) <= 1
 0 <= x_du(1,0) <= 1
 0 <= x_du(2,7) <= 1
 0 <= x_du(2,6) <= 1
 0 <= x_du(2,5) <= 1
 0 <= x_du(2,4) <= 1
 0 <= x_du(2,3) <= 1
 0 <= x_du(2,2) <= 1
 0 <= x_du(2,1) <= 1
 0 <= x_du(2,0) <= 1
 0 <= x_du(3,7) <= 1
 0 <= x_du(3,6) <= 1
 0 <= x_du(3,5) <= 1
 0 <= x_du(3,4) <= 1
 0 <= x_du(3,3) <= 1
 0 <= x_du(3,2) <= 1
 0 <= x_du(3,1) <= 1
 0 <= x_du(3,0) <= 1
 0 <= z(0,0,7) <= 1
 0 <= z(0,0,6) <= 1
 0 <= z(0,0,5) <= 1
 0 <= z(0,0,4) <= 1
 0 <= z(0,0,3) <= 1
 0 <= z(0,0,2) <= 1
 0 <= z(0,0,1) <= 1
 0 <= z(0,0,0) <= 1
 0 <= z(0,1,7) <= 1
 0 <= z(0,1,6) <= 1
 0 <= z(0,1,5) <= 1
 0 <= z(0,1,4) <= 1
 0 <= z(0,1,3) <= 1
 0 <= z(0,1,2) <= 1
 0 <= z(0,1,1) <= 1
 0 <= z(0,1,0) <= 1
 0 <= z(0,2,7) <= 1
 0 <= z(0,2,6) <= 1
 0 <= z(0,2,5) <= 1
 0 <= z(0,2,4) <= 1
 0 <= z(0,2,3) <= 1
 0 <= z(0,2,2) <= 1
 0 <= z(0,2,1) <= 1
 0 <= z(0,2,0) <= 1
 0 <= z(0,3,7) <= 1
 0 <= z(0,3,6) <= 1
 0 <= z(0,3,5) <= 1
 0 <= z(0,3,4) <= 1
 0 <= z(0,3,3) <= 1
 0 <= z(0,3,2) <= 1
 0 <= z(0,3,1) <= 1
 0 <= z(0,3,0) <= 1
 0 <= z(0,4,7) <= 1
 0 <= z(0,4,6) <= 1
 0 <= z(0,4,5) <= 1
 0 <= z(0,4,4) <= 1
 0 <= z(0,4,3) <= 1
 0 <= z(0,4,2) <= 1
 0 <= z(0,4,1) <= 1
 0 <= z(0,4,0) <= 1
 0 <= z(0,5,7) <= 1
 0 <= z(0,5,6) <= 1
 0 <= z(0,5,5) <= 1
 0 <= z(0,5,4) <= 1
 0 <= z(0,5,3) <= 1
 0 <= z(0,5,2) <= 1
 0 <= z(0,5,1) <= 1
 0 <= z(0,5,0) <= 1
 0 <= z(0,6,7) <= 1
 0 <= z(0,6,6) <= 1
 0 <= z(0,6,5) <= 1
 0 <= z(0,6,4) <= 1
 0 <= z(0,6,3) <= 1
 0 <= z(0,6,2) <= 1
 0 <= z(0,6,1) <= 1
 0 <= z(0,6,0) <= 1
 0 <= z(0,7,7) <= 1
 0 <= z(0,7,6) <= 1
 0 <= z(0,7,5) <= 1
 0 <= z(0,7,4) <= 1
 0 <= z(0,7,3) <= 1
 0 <= z(0,7,2) <= 1
 0 <= z(0,7,1) <= 1
 0 <= z(0,7,0) <= 1
 0 <= z(1,0,7) <= 1
 0 <= z(1,0,6) <= 1
 0 <= z(1,0,5) <= 1
 0 <= z(1,0,4) <= 1
 0 <= z(1,0,3) <= 1
 0 <= z(1,0,2) <= 1
 0 <= z(1,0,1) <= 1
 0 <= z(1,0,0) <= 1
 0 <= z(1,1,7) <= 1
 0 <= z(1,1,6) <= 1
 0 <= z(1,1,5) <= 1
 0 <= z(1,1,4) <= 1
 0 <= z(1,1,3) <= 1
 0 <= z(1,1,2) <= 1
 0 <= z(1,1,1) <= 1
 0 <= z(1,1,0) <= 1
 0 <= z(1,2,7) <= 1
 0 <= z(1,2,6) <= 1
 0 <= z(1,2,5) <= 1
 0 <= z(1,2,4) <= 1
 0 <= z(1,2,3) <= 1
 0 <= z(1,2,2) <= 1
 0 <= z(1,2,1) <= 1
 0 <= z(1,2,0) <= 1
 0 <= z(1,3,7) <= 1
 0 <= z(1,3,6) <= 1
 0 <= z(1,3,5) <= 1
 0 <= z(1,3,4) <= 1
 0 <= z(1,3,3) <= 1
 0 <= z(1,3,2) <= 1
 0 <= z(1,3,1) <= 1
 0 <= z(1,3,0) <= 1
 0 <= z(1,4,7) <= 1
 0 <= z(1,4,6) <= 1
 0 <= z(1,4,5) <= 1
 0 <= z(1,4,4) <= 1
 0 <= z(1,4,3) <= 1
 0 <= z(1,4,2) <= 1
 0 <= z(1,4,1) <= 1
 0 <= z(1,4,0) <= 1
 0 <= z(1,5,7) <= 1
 0 <= z(1,5,6) <= 1
 0 <= z(1,5,5) <= 1
 0 <= z(1,5,4) <= 1
 0 <= z(1,5,3) <= 1
 0 <= z(1,5,2) <= 1
 0 <= z(1,5,1) <= 1
 0 <= z(1,5,0) <= 1
 0 <= z(1,6,7) <= 1
 0 <= z(1,6,6) <= 1
 0 <= z(1,6,5) <= 1
 0 <= z(1,6,4) <= 1
 0 <= z(1,6,3) <= 1
 0 <= z(1,6,2) <= 1
 0 <= z(1,6,1) <= 1
 0 <= z(1,6,0) <= 1
 0 <= z(1,7,7) <= 1
 0 <= z(1,7,6) <= 1
 0 <= z(1,7,5) <= 1
 0 <= z(1,7,4) <= 1
 0 <= z(1,7,3) <= 1
 0 <= z(1,7,2) <= 1
 0 <= z(1,7,1) <= 1
 0 <= z(1,7,0) <= 1
 0 <= z(2,0,7) <= 1
 0 <= z(2,0,6) <= 1
 0 <= z(2,0,5) <= 1
 0 <= z(2,0,4) <= 1
 0 <= z(2,0,3) <= 1
 0 <= z(2,0,2) <= 1
 0 <= z(2,0,1) <= 1
 0 <= z(2,0,0) <= 1
 0 <= z(2,1,7) <= 1
 0 <= z(2,1,6) <= 1
 0 <= z(2,1,5) <= 1
 0 <= z(2,1,4) <= 1
 0 <= z(2,1,3) <= 1
 0 <= z(2,1,2) <= 1
 0 <= z(2,1,1) <= 1
 0 <= z(2,1,0) <= 1
 0 <= z(2,2,7) <= 1
 0 <= z(2,2,6) <= 1
 0 <= z(2,2,5) <= 1
 0 <= z(2,2,4) <= 1
 0 <= z(2,2,3) <= 1
 0 <= z(2,2,2) <= 1
 0 <= z(2,2,1) <= 1
 0 <= z(2,2,0) <= 1
 0 <= z(2,3,7) <= 1
 0 <= z(2,3,6) <= 1
 0 <= z(2,3,5) <= 1
 0 <= z(2,3,4) <= 1
 0 <= z(2,3,3) <= 1
 0 <= z(2,3,2) <= 1
 0 <= z(2,3,1) <= 1
 0 <= z(2,3,0) <= 1
 0 <= z(2,4,7) <= 1
 0 <= z(2,4,6) <= 1
 0 <= z(2,4,5) <= 1
 0 <= z(2,4,4) <= 1
 0 <= z(2,4,3) <= 1
 0 <= z(2,4,2) <= 1
 0 <= z(2,4,1) <= 1
 0 <= z(2,4,0) <= 1
 0 <= z(2,5,7) <= 1
 0 <= z(2,5,6) <= 1
 0 <= z(2,5,5) <= 1
 0 <= z(2,5,4) <= 1
 0 <= z(2,5,3) <= 1
 0 <= z(2,5,2) <= 1
 0 <= z(2,5,1) <= 1
 0 <= z(2,5,0) <= 1
 0 <= z(2,6,7) <= 1
 0 <= z(2,6,6) <= 1
 0 <= z(2,6,5) <= 1
 0 <= z(2,6,4) <= 1
 0 <= z(2,6,3) <= 1
 0 <= z(2,6,2) <= 1
 0 <= z(2,6,1) <= 1
 0 <= z(2,6,0) <= 1
 0 <= z(2,7,7) <= 1
 0 <= z(2,7,6) <= 1
 0 <= z(2,7,5) <= 1
 0 <= z(2,7,4) <= 1
 0 <= z(2,7,3) <= 1
 0 <= z(2,7,2) <= 1
 0 <= z(2,7,1) <= 1
 0 <= z(2,7,0) <= 1
 0 <= z(3,0,7) <= 1
 0 <= z(3,0,6) <= 1
 0 <= z(3,0,5) <= 1
 0 <= z(3,0,4) <= 1
 0 <= z(3,0,3) <= 1
 0 <= z(3,0,2) <= 1
 0 <= z(3,0,1) <= 1
 0 <= z(3,0,0) <= 1
 0 <= z(3,1,7) <= 1
 0 <= z(3,1,6) <= 1
 0 <= z(3,1,5) <= 1
 0 <= z(3,1,4) <= 1
 0 <= z(3,1,3) <= 1
 0 <= z(3,1,2) <= 1
 0 <= z(3,1,1) <= 1
 0 <= z(3,1,0) <= 1
 0 <= z(3,2,7) <= 1
 0 <= z(3,2,6) <= 1
 0 <= z(3,2,5) <= 1
 0 <= z(3,2,4) <= 1
 0 <= z(3,2,3) <= 1
 0 <= z(3,2,2) <= 1
 0 <= z(3,2,1) <= 1
 0 <= z(3,2,0) <= 1
 0 <= z(3,3,7) <= 1
 0 <= z(3,3,6) <= 1
 0 <= z(3,3,5) <= 1
 0 <= z(3,3,4) <= 1
 0 <= z(3,3,3) <= 1
 0 <= z(3,3,2) <= 1
 0 <= z(3,3,1) <= 1
 0 <= z(3,3,0) <= 1
 0 <= z(3,4,7) <= 1
 0 <= z(3,4,6) <= 1
 0 <= z(3,4,5) <= 1
 0 <= z(3,4,4) <= 1
 0 <= z(3,4,3) <= 1
 0 <= z(3,4,2) <= 1
 0 <= z(3,4,1) <= 1
 0 <= z(3,4,0) <= 1
 0 <= z(3,5,7) <= 1
 0 <= z(3,5,6) <= 1
 0 <= z(3,5,5) <= 1
 0 <= z(3,5,4) <= 1
 0 <= z(3,5,3) <= 1
 0 <= z(3,5,2) <= 1
 0 <= z(3,5,1) <= 1
 0 <= z(3,5,0) <= 1
 0 <= z(3,6,7) <= 1
 0 <= z(3,6,6) <= 1
 0 <= z(3,6,5) <= 1
 0 <= z(3,6,4) <= 1
 0 <= z(3,6,3) <= 1
 0 <= z(3,6,2) <= 1
 0 <= z(3,6,1) <= 1
 0 <= z(3,6,0) <= 1
 0 <= z(3,7,7) <= 1
 0 <= z(3,7,6) <= 1
 0 <= z(3,7,5) <= 1
 0 <= z(3,7,4) <= 1
 0 <= z(3,7,3) <= 1
 0 <= z(3,7,2) <= 1
 0 <= z(3,7,1) <= 1
 0 <= z(3,7,0) <= 1
 0 <= RgCapacity_of_link(23)#4 <= 23
 0 <= RgCapacity_of_link(21)#5 <= 21
 0 <= RgCapacity_of_link(19)#6 <= 19
 0 <= RgCapacity_of_link(22)#7 <= 22
 0 <= RgCapacity_of_link(17)#8 <= 17
 0 <= RgCapacity_of_link(15)#9 <= 15
 0 <= RgCapacity_of_link(20)#10 <= 20
 0 <= RgCapacity_of_link(16)#11 <= 16
 0 <= RgCapacity_of_link(13)#12 <= 13
 0 <= RgCapacity_of_link(18)#13 <= 18
 0 <= RgCapacity_of_link(14)#14 <= 14
 0 <= RgCapacity_of_link(12)#15 <= 12
 0 <= RgCapacity_of_link(11)#16 <= 11
 0 <= RgCapacity_of_link(10)#17 <= 10
 0 <= RgCapacity_of_link(9)#18 <= 9
 0 <= RgCapacity_of_link(8)#19 <= 8
 0 <= RgCapacity_of_link(7)#20 <= 7
 0 <= RgCapacity_of_link(6)#21 <= 6
 0 <= RgCapacity_of_link(5)#22 <= 5
 0 <= RgCapacity_of_link(4)#23 <= 4
 0 <= RgCapacity_of_link(3)#24 <= 3
 0 <= RgCapacity_of_link(2)#25 <= 2
 0 <= RgCapacity_of_link(1)#26 <= 1
Binaries
 x_cu(0,7)  x_cu(0,6)  x_cu(0,5)  x_cu(0,4)  x_cu(0,3)  x_cu(0,2)  x_cu(0,1) 
 x_cu(0,0)  x_cu(1,7)  x_cu(1,6)  x_cu(1,5)  x_cu(1,4)  x_cu(1,3)  x_cu(1,2) 
 x_cu(1,1)  x_cu(1,0)  x_cu(2,7)  x_cu(2,6)  x_cu(2,5)  x_cu(2,4)  x_cu(2,3) 
 x_cu(2,2)  x_cu(2,1)  x_cu(2,0)  x_cu(3,7)  x_cu(3,6)  x_cu(3,5)  x_cu(3,4) 
 x_cu(3,3)  x_cu(3,2)  x_cu(3,1)  x_cu(3,0)  x_du(0,7)  x_du(0,6)  x_du(0,5) 
 x_du(0,4)  x_du(0,3)  x_du(0,2)  x_du(0,1)  x_du(0,0)  x_du(1,7)  x_du(1,6) 
 x_du(1,5)  x_du(1,4)  x_du(1,3)  x_du(1,2)  x_du(1,1)  x_du(1,0)  x_du(2,7) 
 x_du(2,6)  x_du(2,5)  x_du(2,4)  x_du(2,3)  x_du(2,2)  x_du(2,1)  x_du(2,0) 
 x_du(3,7)  x_du(3,6)  x_du(3,5)  x_du(3,4)  x_du(3,3)  x_du(3,2)  x_du(3,1) 
 x_du(3,0)  z(0,0,7)  z(0,0,6)  z(0,0,5)  z(0,0,4)  z(0,0,3)  z(0,0,2) 
 z(0,0,1)  z(0,0,0)  z(0,1,7)  z(0,1,6)  z(0,1,5)  z(0,1,4)  z(0,1,3) 
 z(0,1,2)  z(0,1,1)  z(0,1,0)  z(0,2,7)  z(0,2,6)  z(0,2,5)  z(0,2,4) 
 z(0,2,3)  z(0,2,2)  z(0,2,1)  z(0,2,0)  z(0,3,7)  z(0,3,6)  z(0,3,5) 
 z(0,3,4)  z(0,3,3)  z(0,3,2)  z(0,3,1)  z(0,3,0)  z(0,4,7)  z(0,4,6) 
 z(0,4,5)  z(0,4,4)  z(0,4,3)  z(0,4,2)  z(0,4,1)  z(0,4,0)  z(0,5,7) 
 z(0,5,6)  z(0,5,5)  z(0,5,4)  z(0,5,3)  z(0,5,2)  z(0,5,1)  z(0,5,0) 
 z(0,6,7)  z(0,6,6)  z(0,6,5)  z(0,6,4)  z(0,6,3)  z(0,6,2)  z(0,6,1) 
 z(0,6,0)  z(0,7,7)  z(0,7,6)  z(0,7,5)  z(0,7,4)  z(0,7,3)  z(0,7,2) 
 z(0,7,1)  z(0,7,0)  z(1,0,7)  z(1,0,6)  z(1,0,5)  z(1,0,4)  z(1,0,3) 
 z(1,0,2)  z(1,0,1)  z(1,0,0)  z(1,1,7)  z(1,1,6)  z(1,1,5)  z(1,1,4) 
 z(1,1,3)  z(1,1,2)  z(1,1,1)  z(1,1,0)  z(1,2,7)  z(1,2,6)  z(1,2,5) 
 z(1,2,4)  z(1,2,3)  z(1,2,2)  z(1,2,1)  z(1,2,0)  z(1,3,7)  z(1,3,6) 
 z(1,3,5)  z(1,3,4)  z(1,3,3)  z(1,3,2)  z(1,3,1)  z(1,3,0)  z(1,4,7) 
 z(1,4,6)  z(1,4,5)  z(1,4,4)  z(1,4,3)  z(1,4,2)  z(1,4,1)  z(1,4,0) 
 z(1,5,7)  z(1,5,6)  z(1,5,5)  z(1,5,4)  z(1,5,3)  z(1,5,2)  z(1,5,1) 
 z(1,5,0)  z(1,6,7)  z(1,6,6)  z(1,6,5)  z(1,6,4)  z(1,6,3)  z(1,6,2) 
 z(1,6,1)  z(1,6,0)  z(1,7,7)  z(1,7,6)  z(1,7,5)  z(1,7,4)  z(1,7,3) 
 z(1,7,2)  z(1,7,1)  z(1,7,0)  z(2,0,7)  z(2,0,6)  z(2,0,5)  z(2,0,4) 
 z(2,0,3)  z(2,0,2)  z(2,0,1)  z(2,0,0)  z(2,1,7)  z(2,1,6)  z(2,1,5) 
 z(2,1,4)  z(2,1,3)  z(2,1,2)  z(2,1,1)  z(2,1,0)  z(2,2,7)  z(2,2,6) 
 z(2,2,5)  z(2,2,4)  z(2,2,3)  z(2,2,2)  z(2,2,1)  z(2,2,0)  z(2,3,7) 
 z(2,3,6)  z(2,3,5)  z(2,3,4)  z(2,3,3)  z(2,3,2)  z(2,3,1)  z(2,3,0) 
 z(2,4,7)  z(2,4,6)  z(2,4,5)  z(2,4,4)  z(2,4,3)  z(2,4,2)  z(2,4,1) 
 z(2,4,0)  z(2,5,7)  z(2,5,6)  z(2,5,5)  z(2,5,4)  z(2,5,3)  z(2,5,2) 
 z(2,5,1)  z(2,5,0)  z(2,6,7)  z(2,6,6)  z(2,6,5)  z(2,6,4)  z(2,6,3) 
 z(2,6,2)  z(2,6,1)  z(2,6,0)  z(2,7,7)  z(2,7,6)  z(2,7,5)  z(2,7,4) 
 z(2,7,3)  z(2,7,2)  z(2,7,1)  z(2,7,0)  z(3,0,7)  z(3,0,6)  z(3,0,5) 
 z(3,0,4)  z(3,0,3)  z(3,0,2)  z(3,0,1)  z(3,0,0)  z(3,1,7)  z(3,1,6) 
 z(3,1,5)  z(3,1,4)  z(3,1,3)  z(3,1,2)  z(3,1,1)  z(3,1,0)  z(3,2,7) 
 z(3,2,6)  z(3,2,5)  z(3,2,4)  z(3,2,3)  z(3,2,2)  z(3,2,1)  z(3,2,0) 
 z(3,3,7)  z(3,3,6)  z(3,3,5)  z(3,3,4)  z(3,3,3)  z(3,3,2)  z(3,3,1) 
 z(3,3,0)  z(3,4,7)  z(3,4,6)  z(3,4,5)  z(3,4,4)  z(3,4,3)  z(3,4,2) 
 z(3,4,1)  z(3,4,0)  z(3,5,7)  z(3,5,6)  z(3,5,5)  z(3,5,4)  z(3,5,3) 
 z(3,5,2)  z(3,5,1)  z(3,5,0)  z(3,6,7)  z(3,6,6)  z(3,6,5)  z(3,6,4) 
 z(3,6,3)  z(3,6,2)  z(3,6,1)  z(3,6,0)  z(3,7,7)  z(3,7,6)  z(3,7,5) 
 z(3,7,4)  z(3,7,3)  z(3,7,2)  z(3,7,1)  z(3,7,0) 
End
